p cnf 125 1006
3 0
123 0
59 0
-2 -26 -9 32 0
-2 -26 -14 37 0
-2 -26 -19 42 0
-2 -26 -24 47 0
-2 -27 -9 33 0
-2 -27 -14 38 0
-2 -27 -19 43 0
-2 -27 -24 48 0
-2 -28 -9 34 0
-2 -28 -14 39 0
-2 -28 -19 44 0
-2 -28 -24 49 0
-2 -29 -9 35 0
-2 -29 -14 40 0
-2 -29 -19 45 0
-2 -29 -24 50 0
-7 -31 -4 27 0
-7 -31 -14 37 0
-7 -31 -19 42 0
-7 -31 -24 47 0
-7 -32 -4 28 0
-7 -32 -14 38 0
-7 -32 -19 43 0
-7 -32 -24 48 0
-7 -33 -4 29 0
-7 -33 -14 39 0
-7 -33 -19 44 0
-7 -33 -24 49 0
-7 -34 -4 30 0
-7 -34 -14 40 0
-7 -34 -19 45 0
-7 -34 -24 50 0
-12 -36 -4 27 0
-12 -36 -9 32 0
-12 -36 -19 42 0
-12 -36 -24 47 0
-12 -37 -4 28 0
-12 -37 -9 33 0
-12 -37 -19 43 0
-12 -37 -24 48 0
-12 -38 -4 29 0
-12 -38 -9 34 0
-12 -38 -19 44 0
-12 -38 -24 49 0
-12 -39 -4 30 0
-12 -39 -9 35 0
-12 -39 -19 45 0
-12 -39 -24 50 0
-17 -41 -4 27 0
-17 -41 -9 32 0
-17 -41 -14 37 0
-17 -41 -24 47 0
-17 -42 -4 28 0
-17 -42 -9 33 0
-17 -42 -14 38 0
-17 -42 -24 48 0
-17 -43 -4 29 0
-17 -43 -9 34 0
-17 -43 -14 39 0
-17 -43 -24 49 0
-17 -44 -4 30 0
-17 -44 -9 35 0
-17 -44 -14 40 0
-17 -44 -24 50 0
-22 -46 -4 27 0
-22 -46 -9 32 0
-22 -46 -14 37 0
-22 -46 -19 42 0
-22 -47 -4 28 0
-22 -47 -9 33 0
-22 -47 -14 38 0
-22 -47 -19 43 0
-22 -48 -4 29 0
-22 -48 -9 34 0
-22 -48 -14 39 0
-22 -48 -19 44 0
-22 -49 -4 30 0
-22 -49 -9 35 0
-22 -49 -14 40 0
-22 -49 -19 45 0
-2 52 0
2 -52 0
-7 57 0
7 -57 0
-12 62 0
12 -62 0
-17 67 0
17 -67 0
-22 72 0
22 -72 0
-79 101 0
79 -101 0
-84 106 0
84 -106 0
-89 111 0
89 -111 0
-94 116 0
94 -116 0
-99 121 0
99 -121 0
-5 78 0
5 -78 0
-10 83 0
10 -83 0
-15 88 0
15 -88 0
-20 93 0
20 -93 0
-25 98 0
25 -98 0
-28 53 0
28 -53 0
-33 58 0
33 -58 0
-38 63 0
38 -63 0
-43 68 0
43 -68 0
-48 73 0
48 -73 0
41 0
-76 -26 -107 32 0
-76 -26 -112 37 0
-76 -26 -117 42 0
-76 -26 -122 47 0
-76 -27 -107 31 33 0
-76 -27 -112 36 38 0
-76 -27 -117 41 43 0
-76 -27 -122 46 48 0
-76 -28 -107 32 34 0
-76 -28 -112 37 39 0
-76 -28 -117 42 44 0
-76 -28 -122 47 49 0
-76 -29 -107 33 35 0
-76 -29 -112 38 40 0
-76 -29 -117 43 45 0
-76 -29 -122 48 50 0
-76 -30 -107 34 0
-76 -30 -112 39 0
-76 -30 -117 44 0
-76 -30 -122 49 0
-81 -31 -102 27 0
-81 -31 -112 37 0
-81 -31 -117 42 0
-81 -31 -122 47 0
-81 -32 -102 26 28 0
-81 -32 -112 36 38 0
-81 -32 -117 41 43 0
-81 -32 -122 46 48 0
-81 -33 -102 27 29 0
-81 -33 -112 37 39 0
-81 -33 -117 42 44 0
-81 -33 -122 47 49 0
-81 -34 -102 28 30 0
-81 -34 -112 38 40 0
-81 -34 -117 43 45 0
-81 -34 -122 48 50 0
-81 -35 -102 29 0
-81 -35 -112 39 0
-81 -35 -117 44 0
-81 -35 -122 49 0
-86 -36 -102 27 0
-86 -36 -107 32 0
-86 -36 -117 42 0
-86 -36 -122 47 0
-86 -37 -102 26 28 0
-86 -37 -107 31 33 0
-86 -37 -117 41 43 0
-86 -37 -122 46 48 0
-86 -38 -102 27 29 0
-86 -38 -107 32 34 0
-86 -38 -117 42 44 0
-86 -38 -122 47 49 0
-86 -39 -102 28 30 0
-86 -39 -107 33 35 0
-86 -39 -117 43 45 0
-86 -39 -122 48 50 0
-86 -40 -102 29 0
-86 -40 -107 34 0
-86 -40 -117 44 0
-86 -40 -122 49 0
-91 -41 -102 27 0
-91 -41 -107 32 0
-91 -41 -112 37 0
-91 -41 -122 47 0
-91 -42 -102 26 28 0
-91 -42 -107 31 33 0
-91 -42 -112 36 38 0
-91 -42 -122 46 48 0
-91 -43 -102 27 29 0
-91 -43 -107 32 34 0
-91 -43 -112 37 39 0
-91 -43 -122 47 49 0
-91 -44 -102 28 30 0
-91 -44 -107 33 35 0
-91 -44 -112 38 40 0
-91 -44 -122 48 50 0
-91 -45 -102 29 0
-91 -45 -107 34 0
-91 -45 -112 39 0
-91 -45 -122 49 0
-96 -46 -102 27 0
-96 -46 -107 32 0
-96 -46 -112 37 0
-96 -46 -117 42 0
-96 -47 -102 26 28 0
-96 -47 -107 31 33 0
-96 -47 -112 36 38 0
-96 -47 -117 41 43 0
-96 -48 -102 27 29 0
-96 -48 -107 32 34 0
-96 -48 -112 37 39 0
-96 -48 -117 42 44 0
-96 -49 -102 28 30 0
-96 -49 -107 33 35 0
-96 -49 -112 38 40 0
-96 -49 -117 43 45 0
-96 -50 -102 29 0
-96 -50 -107 34 0
-96 -50 -112 39 0
-96 -50 -117 44 0
-105 -26 -83 32 0
-105 -26 -88 37 0
-105 -26 -93 42 0
-105 -26 -98 47 0
-105 -27 -83 31 33 0
-105 -27 -88 36 38 0
-105 -27 -93 41 43 0
-105 -27 -98 46 48 0
-105 -28 -83 32 34 0
-105 -28 -88 37 39 0
-105 -28 -93 42 44 0
-105 -28 -98 47 49 0
-105 -29 -83 33 35 0
-105 -29 -88 38 40 0
-105 -29 -93 43 45 0
-105 -29 -98 48 50 0
-105 -30 -83 34 0
-105 -30 -88 39 0
-105 -30 -93 44 0
-105 -30 -98 49 0
-110 -31 -78 27 0
-110 -31 -88 37 0
-110 -31 -93 42 0
-110 -31 -98 47 0
-110 -32 -78 26 28 0
-110 -32 -88 36 38 0
-110 -32 -93 41 43 0
-110 -32 -98 46 48 0
-110 -33 -78 27 29 0
-110 -33 -88 37 39 0
-110 -33 -93 42 44 0
-110 -33 -98 47 49 0
-110 -34 -78 28 30 0
-110 -34 -88 38 40 0
-110 -34 -93 43 45 0
-110 -34 -98 48 50 0
-110 -35 -78 29 0
-110 -35 -88 39 0
-110 -35 -93 44 0
-110 -35 -98 49 0
-115 -36 -78 27 0
-115 -36 -83 32 0
-115 -36 -93 42 0
-115 -36 -98 47 0
-115 -37 -78 26 28 0
-115 -37 -83 31 33 0
-115 -37 -93 41 43 0
-115 -37 -98 46 48 0
-115 -38 -78 27 29 0
-115 -38 -83 32 34 0
-115 -38 -93 42 44 0
-115 -38 -98 47 49 0
-115 -39 -78 28 30 0
-115 -39 -83 33 35 0
-115 -39 -93 43 45 0
-115 -39 -98 48 50 0
-115 -40 -78 29 0
-115 -40 -83 34 0
-115 -40 -93 44 0
-115 -40 -98 49 0
-120 -41 -78 27 0
-120 -41 -83 32 0
-120 -41 -88 37 0
-120 -41 -98 47 0
-120 -42 -78 26 28 0
-120 -42 -83 31 33 0
-120 -42 -88 36 38 0
-120 -42 -98 46 48 0
-120 -43 -78 27 29 0
-120 -43 -83 32 34 0
-120 -43 -88 37 39 0
-120 -43 -98 47 49 0
-120 -44 -78 28 30 0
-120 -44 -83 33 35 0
-120 -44 -88 38 40 0
-120 -44 -98 48 50 0
-120 -45 -78 29 0
-120 -45 -83 34 0
-120 -45 -88 39 0
-120 -45 -98 49 0
-125 -46 -78 27 0
-125 -46 -83 32 0
-125 -46 -88 37 0
-125 -46 -93 42 0
-125 -47 -78 26 28 0
-125 -47 -83 31 33 0
-125 -47 -88 36 38 0
-125 -47 -93 41 43 0
-125 -48 -78 27 29 0
-125 -48 -83 32 34 0
-125 -48 -88 37 39 0
-125 -48 -93 42 44 0
-125 -49 -78 28 30 0
-125 -49 -83 33 35 0
-125 -49 -88 38 40 0
-125 -49 -93 43 45 0
-125 -50 -78 29 0
-125 -50 -83 34 0
-125 -50 -88 39 0
-125 -50 -93 44 0
-77 51 0
77 -51 0
-82 56 0
82 -56 0
-87 61 0
87 -61 0
-92 66 0
92 -66 0
-97 71 0
97 -71 0
90 0
-16 0
-41 -1 27 0
-41 -6 32 0
-41 -11 37 0
-41 -21 47 0
-42 -1 26 28 0
-42 -6 31 33 0
-42 -11 36 38 0
-42 -21 46 48 0
-43 -1 27 29 0
-43 -6 32 34 0
-43 -11 37 39 0
-43 -21 47 49 0
-44 -1 28 30 0
-44 -6 33 35 0
-44 -11 38 40 0
-44 -21 48 50 0
-45 -1 29 0
-45 -6 34 0
-45 -11 39 0
-45 -21 49 0
-105 -26 -83 32 0
-105 -26 -88 37 0
-105 -26 -93 42 0
-105 -26 -98 47 0
-105 -27 -83 31 33 0
-105 -27 -88 36 38 0
-105 -27 -93 41 43 0
-105 -27 -98 46 48 0
-105 -28 -83 32 34 0
-105 -28 -88 37 39 0
-105 -28 -93 42 44 0
-105 -28 -98 47 49 0
-105 -29 -83 33 35 0
-105 -29 -88 38 40 0
-105 -29 -93 43 45 0
-105 -29 -98 48 50 0
-105 -30 -83 34 0
-105 -30 -88 39 0
-105 -30 -93 44 0
-105 -30 -98 49 0
-110 -31 -78 27 0
-110 -31 -88 37 0
-110 -31 -93 42 0
-110 -31 -98 47 0
-110 -32 -78 26 28 0
-110 -32 -88 36 38 0
-110 -32 -93 41 43 0
-110 -32 -98 46 48 0
-110 -33 -78 27 29 0
-110 -33 -88 37 39 0
-110 -33 -93 42 44 0
-110 -33 -98 47 49 0
-110 -34 -78 28 30 0
-110 -34 -88 38 40 0
-110 -34 -93 43 45 0
-110 -34 -98 48 50 0
-110 -35 -78 29 0
-110 -35 -88 39 0
-110 -35 -93 44 0
-110 -35 -98 49 0
-115 -36 -78 27 0
-115 -36 -83 32 0
-115 -36 -93 42 0
-115 -36 -98 47 0
-115 -37 -78 26 28 0
-115 -37 -83 31 33 0
-115 -37 -93 41 43 0
-115 -37 -98 46 48 0
-115 -38 -78 27 29 0
-115 -38 -83 32 34 0
-115 -38 -93 42 44 0
-115 -38 -98 47 49 0
-115 -39 -78 28 30 0
-115 -39 -83 33 35 0
-115 -39 -93 43 45 0
-115 -39 -98 48 50 0
-115 -40 -78 29 0
-115 -40 -83 34 0
-115 -40 -93 44 0
-115 -40 -98 49 0
-120 -41 -78 27 0
-120 -41 -83 32 0
-120 -41 -88 37 0
-120 -41 -98 47 0
-120 -42 -78 26 28 0
-120 -42 -83 31 33 0
-120 -42 -88 36 38 0
-120 -42 -98 46 48 0
-120 -43 -78 27 29 0
-120 -43 -83 32 34 0
-120 -43 -88 37 39 0
-120 -43 -98 47 49 0
-120 -44 -78 28 30 0
-120 -44 -83 33 35 0
-120 -44 -88 38 40 0
-120 -44 -98 48 50 0
-120 -45 -78 29 0
-120 -45 -83 34 0
-120 -45 -88 39 0
-120 -45 -98 49 0
-125 -46 -78 27 0
-125 -46 -83 32 0
-125 -46 -88 37 0
-125 -46 -93 42 0
-125 -47 -78 26 28 0
-125 -47 -83 31 33 0
-125 -47 -88 36 38 0
-125 -47 -93 41 43 0
-125 -48 -78 27 29 0
-125 -48 -83 32 34 0
-125 -48 -88 37 39 0
-125 -48 -93 42 44 0
-125 -49 -78 28 30 0
-125 -49 -83 33 35 0
-125 -49 -88 38 40 0
-125 -49 -93 43 45 0
-125 -50 -78 29 0
-125 -50 -83 34 0
-125 -50 -88 39 0
-125 -50 -93 44 0
1 2 3 4 5 0
-1 -2 0
-1 -3 0
-1 -4 0
-1 -5 0
-2 -3 0
-2 -4 0
-2 -5 0
-3 -4 0
-3 -5 0
-4 -5 0
1 6 11 16 21 0
-1 -6 0
-1 -11 0
-1 -16 0
-1 -21 0
-6 -11 0
-6 -16 0
-6 -21 0
-11 -16 0
-11 -21 0
-16 -21 0
6 7 8 9 10 0
-6 -7 0
-6 -8 0
-6 -9 0
-6 -10 0
-7 -8 0
-7 -9 0
-7 -10 0
-8 -9 0
-8 -10 0
-9 -10 0
2 7 12 17 22 0
-2 -7 0
-2 -12 0
-2 -17 0
-2 -22 0
-7 -12 0
-7 -17 0
-7 -22 0
-12 -17 0
-12 -22 0
-17 -22 0
11 12 13 14 15 0
-11 -12 0
-11 -13 0
-11 -14 0
-11 -15 0
-12 -13 0
-12 -14 0
-12 -15 0
-13 -14 0
-13 -15 0
-14 -15 0
3 8 13 18 23 0
-3 -8 0
-3 -13 0
-3 -18 0
-3 -23 0
-8 -13 0
-8 -18 0
-8 -23 0
-13 -18 0
-13 -23 0
-18 -23 0
16 17 18 19 20 0
-16 -17 0
-16 -18 0
-16 -19 0
-16 -20 0
-17 -18 0
-17 -19 0
-17 -20 0
-18 -19 0
-18 -20 0
-19 -20 0
4 9 14 19 24 0
-4 -9 0
-4 -14 0
-4 -19 0
-4 -24 0
-9 -14 0
-9 -19 0
-9 -24 0
-14 -19 0
-14 -24 0
-19 -24 0
21 22 23 24 25 0
-21 -22 0
-21 -23 0
-21 -24 0
-21 -25 0
-22 -23 0
-22 -24 0
-22 -25 0
-23 -24 0
-23 -25 0
-24 -25 0
5 10 15 20 25 0
-5 -10 0
-5 -15 0
-5 -20 0
-5 -25 0
-10 -15 0
-10 -20 0
-10 -25 0
-15 -20 0
-15 -25 0
-20 -25 0
26 27 28 29 30 0
-26 -27 0
-26 -28 0
-26 -29 0
-26 -30 0
-27 -28 0
-27 -29 0
-27 -30 0
-28 -29 0
-28 -30 0
-29 -30 0
26 31 36 41 46 0
-26 -31 0
-26 -36 0
-26 -41 0
-26 -46 0
-31 -36 0
-31 -41 0
-31 -46 0
-36 -41 0
-36 -46 0
-41 -46 0
31 32 33 34 35 0
-31 -32 0
-31 -33 0
-31 -34 0
-31 -35 0
-32 -33 0
-32 -34 0
-32 -35 0
-33 -34 0
-33 -35 0
-34 -35 0
27 32 37 42 47 0
-27 -32 0
-27 -37 0
-27 -42 0
-27 -47 0
-32 -37 0
-32 -42 0
-32 -47 0
-37 -42 0
-37 -47 0
-42 -47 0
36 37 38 39 40 0
-36 -37 0
-36 -38 0
-36 -39 0
-36 -40 0
-37 -38 0
-37 -39 0
-37 -40 0
-38 -39 0
-38 -40 0
-39 -40 0
28 33 38 43 48 0
-28 -33 0
-28 -38 0
-28 -43 0
-28 -48 0
-33 -38 0
-33 -43 0
-33 -48 0
-38 -43 0
-38 -48 0
-43 -48 0
41 42 43 44 45 0
-41 -42 0
-41 -43 0
-41 -44 0
-41 -45 0
-42 -43 0
-42 -44 0
-42 -45 0
-43 -44 0
-43 -45 0
-44 -45 0
29 34 39 44 49 0
-29 -34 0
-29 -39 0
-29 -44 0
-29 -49 0
-34 -39 0
-34 -44 0
-34 -49 0
-39 -44 0
-39 -49 0
-44 -49 0
46 47 48 49 50 0
-46 -47 0
-46 -48 0
-46 -49 0
-46 -50 0
-47 -48 0
-47 -49 0
-47 -50 0
-48 -49 0
-48 -50 0
-49 -50 0
30 35 40 45 50 0
-30 -35 0
-30 -40 0
-30 -45 0
-30 -50 0
-35 -40 0
-35 -45 0
-35 -50 0
-40 -45 0
-40 -50 0
-45 -50 0
51 52 53 54 55 0
-51 -52 0
-51 -53 0
-51 -54 0
-51 -55 0
-52 -53 0
-52 -54 0
-52 -55 0
-53 -54 0
-53 -55 0
-54 -55 0
51 56 61 66 71 0
-51 -56 0
-51 -61 0
-51 -66 0
-51 -71 0
-56 -61 0
-56 -66 0
-56 -71 0
-61 -66 0
-61 -71 0
-66 -71 0
56 57 58 59 60 0
-56 -57 0
-56 -58 0
-56 -59 0
-56 -60 0
-57 -58 0
-57 -59 0
-57 -60 0
-58 -59 0
-58 -60 0
-59 -60 0
52 57 62 67 72 0
-52 -57 0
-52 -62 0
-52 -67 0
-52 -72 0
-57 -62 0
-57 -67 0
-57 -72 0
-62 -67 0
-62 -72 0
-67 -72 0
61 62 63 64 65 0
-61 -62 0
-61 -63 0
-61 -64 0
-61 -65 0
-62 -63 0
-62 -64 0
-62 -65 0
-63 -64 0
-63 -65 0
-64 -65 0
53 58 63 68 73 0
-53 -58 0
-53 -63 0
-53 -68 0
-53 -73 0
-58 -63 0
-58 -68 0
-58 -73 0
-63 -68 0
-63 -73 0
-68 -73 0
66 67 68 69 70 0
-66 -67 0
-66 -68 0
-66 -69 0
-66 -70 0
-67 -68 0
-67 -69 0
-67 -70 0
-68 -69 0
-68 -70 0
-69 -70 0
54 59 64 69 74 0
-54 -59 0
-54 -64 0
-54 -69 0
-54 -74 0
-59 -64 0
-59 -69 0
-59 -74 0
-64 -69 0
-64 -74 0
-69 -74 0
71 72 73 74 75 0
-71 -72 0
-71 -73 0
-71 -74 0
-71 -75 0
-72 -73 0
-72 -74 0
-72 -75 0
-73 -74 0
-73 -75 0
-74 -75 0
55 60 65 70 75 0
-55 -60 0
-55 -65 0
-55 -70 0
-55 -75 0
-60 -65 0
-60 -70 0
-60 -75 0
-65 -70 0
-65 -75 0
-70 -75 0
76 77 78 79 80 0
-76 -77 0
-76 -78 0
-76 -79 0
-76 -80 0
-77 -78 0
-77 -79 0
-77 -80 0
-78 -79 0
-78 -80 0
-79 -80 0
76 81 86 91 96 0
-76 -81 0
-76 -86 0
-76 -91 0
-76 -96 0
-81 -86 0
-81 -91 0
-81 -96 0
-86 -91 0
-86 -96 0
-91 -96 0
81 82 83 84 85 0
-81 -82 0
-81 -83 0
-81 -84 0
-81 -85 0
-82 -83 0
-82 -84 0
-82 -85 0
-83 -84 0
-83 -85 0
-84 -85 0
77 82 87 92 97 0
-77 -82 0
-77 -87 0
-77 -92 0
-77 -97 0
-82 -87 0
-82 -92 0
-82 -97 0
-87 -92 0
-87 -97 0
-92 -97 0
86 87 88 89 90 0
-86 -87 0
-86 -88 0
-86 -89 0
-86 -90 0
-87 -88 0
-87 -89 0
-87 -90 0
-88 -89 0
-88 -90 0
-89 -90 0
78 83 88 93 98 0
-78 -83 0
-78 -88 0
-78 -93 0
-78 -98 0
-83 -88 0
-83 -93 0
-83 -98 0
-88 -93 0
-88 -98 0
-93 -98 0
91 92 93 94 95 0
-91 -92 0
-91 -93 0
-91 -94 0
-91 -95 0
-92 -93 0
-92 -94 0
-92 -95 0
-93 -94 0
-93 -95 0
-94 -95 0
79 84 89 94 99 0
-79 -84 0
-79 -89 0
-79 -94 0
-79 -99 0
-84 -89 0
-84 -94 0
-84 -99 0
-89 -94 0
-89 -99 0
-94 -99 0
96 97 98 99 100 0
-96 -97 0
-96 -98 0
-96 -99 0
-96 -100 0
-97 -98 0
-97 -99 0
-97 -100 0
-98 -99 0
-98 -100 0
-99 -100 0
80 85 90 95 100 0
-80 -85 0
-80 -90 0
-80 -95 0
-80 -100 0
-85 -90 0
-85 -95 0
-85 -100 0
-90 -95 0
-90 -100 0
-95 -100 0
101 102 103 104 105 0
-101 -102 0
-101 -103 0
-101 -104 0
-101 -105 0
-102 -103 0
-102 -104 0
-102 -105 0
-103 -104 0
-103 -105 0
-104 -105 0
101 106 111 116 121 0
-101 -106 0
-101 -111 0
-101 -116 0
-101 -121 0
-106 -111 0
-106 -116 0
-106 -121 0
-111 -116 0
-111 -121 0
-116 -121 0
106 107 108 109 110 0
-106 -107 0
-106 -108 0
-106 -109 0
-106 -110 0
-107 -108 0
-107 -109 0
-107 -110 0
-108 -109 0
-108 -110 0
-109 -110 0
102 107 112 117 122 0
-102 -107 0
-102 -112 0
-102 -117 0
-102 -122 0
-107 -112 0
-107 -117 0
-107 -122 0
-112 -117 0
-112 -122 0
-117 -122 0
111 112 113 114 115 0
-111 -112 0
-111 -113 0
-111 -114 0
-111 -115 0
-112 -113 0
-112 -114 0
-112 -115 0
-113 -114 0
-113 -115 0
-114 -115 0
103 108 113 118 123 0
-103 -108 0
-103 -113 0
-103 -118 0
-103 -123 0
-108 -113 0
-108 -118 0
-108 -123 0
-113 -118 0
-113 -123 0
-118 -123 0
116 117 118 119 120 0
-116 -117 0
-116 -118 0
-116 -119 0
-116 -120 0
-117 -118 0
-117 -119 0
-117 -120 0
-118 -119 0
-118 -120 0
-119 -120 0
104 109 114 119 124 0
-104 -109 0
-104 -114 0
-104 -119 0
-104 -124 0
-109 -114 0
-109 -119 0
-109 -124 0
-114 -119 0
-114 -124 0
-119 -124 0
121 122 123 124 125 0
-121 -122 0
-121 -123 0
-121 -124 0
-121 -125 0
-122 -123 0
-122 -124 0
-122 -125 0
-123 -124 0
-123 -125 0
-124 -125 0
105 110 115 120 125 0
-105 -110 0
-105 -115 0
-105 -120 0
-105 -125 0
-110 -115 0
-110 -120 0
-110 -125 0
-115 -120 0
-115 -125 0
-120 -125 0
